161	32	4	81	
10	10	10	10

0	0	0	0	0	0	6	1	2	3	4	5	6
1	1	1	0	1	9	5	11	10	9	8	7
2	4	0	1	3	1	5	11	10	9	8	7
3	4	1	5	0	1	5	11	10	9	8	7
4	0	4	6	2	1	5	11	10	9	8	7
5	0	6	3	6	9	4	11	10	8	7
6	3	0	2	6	10	4	11	10	8	7
7	0	3	5	4	2	5	16	15	14	13	12
8	6	4	5	0	1	5	16	15	14	13	12
9	0	5	6	4	10	5	16	15	14	13	12
10	2	3	4	0	3	4	15	14	13	12
11	0	7	5	1	8	4	15	14	13	12
12	6	2	0	6	9	6	23	21	20	19	18	17
13	0	6	4	3	10	6	22	21	20	19	18	17
14	1	5	0	5	8	5	23	21	20	19	17
15	6	3	5	0	2	5	22	21	20	18	17
16	3	0	4	2	2	5	23	22	19	18	17
17	0	4	1	3	4	2	25	24
18	2	0	6	6	1	2	25	24
19	4	1	0	5	3	2	25	24
20	4	4	5	0	10	2	25	24
21	5	0	3	5	5	2	25	24
22	9	10	0	4	3	2	25	24
23	2	3	0	4	3	3	30	29	25
24	3	0	4	3	6	5	30	29	28	27	26
25	6	3	0	4	7	3	28	27	26
26	0	6	3	4	8	1	31
27	5	4	2	0	10	1	31
28	7	1	0	5	3	1	31
29	2	0	3	6	8	1	31
30	3	6	6	0	4	1	31
31	0	0	0	0	0	0
